words_hard_train/8311.qaiger
aag 109 16 0 1 93
2
4
12
14
18
22
26
30
34
48
60
72
84
92
106
132
218
6 2 4
8 3 5
10 7 9
16 12 14
20 16 18
24 20 22
28 24 26
32 28 30
36 32 34
38 10 36
40 11 37
42 39 41
44 29 31
46 45 33
50 46 49
52 47 48
54 51 53
56 25 27
58 57 29
62 58 61
64 59 60
66 63 65
68 21 23
70 69 25
74 70 73
76 71 72
78 75 77
80 13 15
82 81 17
86 82 84
88 83 85
90 87 89
94 92 12
96 93 13
98 95 97
100 91 98
102 17 19
104 103 21
108 104 107
110 105 106
112 109 111
114 100 112
116 78 114
118 66 116
120 55 119
122 54 118
124 121 123
126 124 106
128 33 35
130 129 37
134 130 133
136 131 132
138 135 137
140 139 123
142 138 122
144 141 143
146 144 84
148 127 147
150 79 61
152 151 117
154 99 5
156 155 132
158 157 90
160 154 133
162 159 161
164 112 48
166 163 165
168 113 49
170 167 169
172 171 115
174 78 60
176 172 175
178 152 177
180 67 117
182 181 119
184 183 73
186 178 185
188 182 72
190 187 189
192 125 107
194 191 193
196 148 195
198 145 85
200 197 199
202 42 200
204 142 93
206 202 205
208 143 92
210 209 203
212 207 211
214 43 201
216 214 205
218 213 217
i0 1 x2[7]
i1 2 y1[7]
i2 1 x2[0]
i3 1 x2[1]
i4 1 x2[2]
i5 1 x2[3]
i6 1 x2[4]
i7 1 x2[5]
i8 1 x2[6]
i9 2 y1[5]
i10 2 y1[4]
i11 2 y1[3]
i12 2 y1[1]
i13 2 y1[0]
i14 2 y1[2]
i15 2 y1[6]
o0 bv[0]
c
simplified
  >=
    reverse
      2 y1
    xor
      2 y1
      add
        1 x2
        1
