words_hard_train/8311.qaiger.qdimacs
p cnf 109 280
a 1 6 7 9 11 13 15 17 0
e 2 3 4 5 8 10 12 14 16 18 19 20 21 22 23 24 25 26 27 28 29 30 31 32 33 34 35 36 37 38 39 40 41 42 43 44 45 46 47 48 49 50 51 52 53 54 55 56 57 58 59 60 61 62 63 64 65 66 67 68 69 70 71 72 73 74 75 76 77 78 79 80 81 82 83 84 85 86 87 88 89 90 91 92 93 94 95 96 97 98 99 100 101 102 103 104 105 106 107 108 109 0
-1 -2 3 0
1 -3 0
2 -3 0
1 2 4 0
-1 -4 0
-2 -4 0
3 4 5 0
-3 -5 0
-4 -5 0
-6 -7 8 0
6 -8 0
7 -8 0
-8 -9 10 0
8 -10 0
9 -10 0
-10 -11 12 0
10 -12 0
11 -12 0
-12 -13 14 0
12 -14 0
13 -14 0
-14 -15 16 0
14 -16 0
15 -16 0
-16 -17 18 0
16 -18 0
17 -18 0
-5 -18 19 0
5 -19 0
18 -19 0
5 18 20 0
-5 -20 0
-18 -20 0
19 20 21 0
-19 -21 0
-20 -21 0
14 15 22 0
-14 -22 0
-15 -22 0
22 16 23 0
-22 -23 0
-16 -23 0
-23 24 25 0
23 -25 0
-24 -25 0
23 -24 26 0
-23 -26 0
24 -26 0
25 26 27 0
-25 -27 0
-26 -27 0
12 13 28 0
-12 -28 0
-13 -28 0
28 14 29 0
-28 -29 0
-14 -29 0
-29 30 31 0
29 -31 0
-30 -31 0
29 -30 32 0
-29 -32 0
30 -32 0
31 32 33 0
-31 -33 0
-32 -33 0
10 11 34 0
-10 -34 0
-11 -34 0
34 12 35 0
-34 -35 0
-12 -35 0
-35 36 37 0
35 -37 0
-36 -37 0
35 -36 38 0
-35 -38 0
36 -38 0
37 38 39 0
-37 -39 0
-38 -39 0
6 7 40 0
-6 -40 0
-7 -40 0
40 8 41 0
-40 -41 0
-8 -41 0
-41 -42 43 0
41 -43 0
42 -43 0
41 42 44 0
-41 -44 0
-42 -44 0
43 44 45 0
-43 -45 0
-44 -45 0
-46 -6 47 0
46 -47 0
6 -47 0
46 6 48 0
-46 -48 0
-6 -48 0
47 48 49 0
-47 -49 0
-48 -49 0
45 -49 50 0
-45 -50 0
49 -50 0
8 9 51 0
-8 -51 0
-9 -51 0
51 10 52 0
-51 -52 0
-10 -52 0
-52 53 54 0
52 -54 0
-53 -54 0
52 -53 55 0
-52 -55 0
53 -55 0
54 55 56 0
-54 -56 0
-55 -56 0
-50 -56 57 0
50 -57 0
56 -57 0
-39 -57 58 0
39 -58 0
57 -58 0
-33 -58 59 0
33 -59 0
58 -59 0
27 59 60 0
-27 -60 0
-59 -60 0
-27 -59 61 0
27 -61 0
59 -61 0
60 61 62 0
-60 -62 0
-61 -62 0
-62 -53 63 0
62 -63 0
53 -63 0
16 17 64 0
-16 -64 0
-17 -64 0
64 18 65 0
-64 -65 0
-18 -65 0
-65 66 67 0
65 -67 0
-66 -67 0
65 -66 68 0
-65 -68 0
66 -68 0
67 68 69 0
-67 -69 0
-68 -69 0
69 61 70 0
-69 -70 0
-61 -70 0
-69 -61 71 0
69 -71 0
61 -71 0
70 71 72 0
-70 -72 0
-71 -72 0
-72 -42 73 0
72 -73 0
42 -73 0
63 73 74 0
-63 -74 0
-73 -74 0
39 30 75 0
-39 -75 0
-30 -75 0
75 58 76 0
-75 -76 0
-58 -76 0
49 2 77 0
-49 -77 0
-2 -77 0
77 -66 78 0
-77 -78 0
66 -78 0
78 -45 79 0
-78 -79 0
45 -79 0
-77 66 80 0
77 -80 0
-66 -80 0
79 80 81 0
-79 -81 0
-80 -81 0
-56 -24 82 0
56 -82 0
24 -82 0
81 82 83 0
-81 -83 0
-82 -83 0
56 24 84 0
-56 -84 0
-24 -84 0
83 84 85 0
-83 -85 0
-84 -85 0
85 57 86 0
-85 -86 0
-57 -86 0
-39 -30 87 0
39 -87 0
30 -87 0
-86 87 88 0
86 -88 0
-87 -88 0
-76 88 89 0
76 -89 0
-88 -89 0
33 58 90 0
-33 -90 0
-58 -90 0
90 59 91 0
-90 -91 0
-59 -91 0
91 36 92 0
-91 -92 0
-36 -92 0
-89 92 93 0
89 -93 0
-92 -93 0
-91 -36 94 0
91 -94 0
36 -94 0
93 94 95 0
-93 -95 0
-94 -95 0
62 53 96 0
-62 -96 0
-53 -96 0
95 96 97 0
-95 -97 0
-96 -97 0
-74 97 98 0
74 -98 0
-97 -98 0
72 42 99 0
-72 -99 0
-42 -99 0
98 99 100 0
-98 -100 0
-99 -100 0
-21 -100 101 0
21 -101 0
100 -101 0
-71 46 102 0
71 -102 0
-46 -102 0
-101 102 103 0
101 -103 0
-102 -103 0
71 -46 104 0
-71 -104 0
46 -104 0
104 101 105 0
-104 -105 0
-101 -105 0
103 105 106 0
-103 -106 0
-105 -106 0
21 100 107 0
-21 -107 0
-100 -107 0
-107 102 108 0
107 -108 0
-102 -108 0
106 108 109 0
-106 -109 0
-108 -109 0
109 0
